proyfinal/src/viki/013/experimentInOfficeAgust.take6.output/32cc80d0-c64e-41e5-8ccc-be158fd1f40e.als.dat
{'cnf.clauses': '118081',
 'cnf.totvars': '69608',
 'conflict literals': '32',
 'conflicts': '12',
 'decisions': '2821',
 'memused.mb': '15.33',
 'outcome': 'UNSAT',
 'propagations': '22984',
 'restarts': '1',
 'solver.msecs': 33,
 'task.msecs': 77}
