proyfinal/src/viki/013/experimentInOfficeAgust.take6.output/32cc80d0-c64e-41e5-8ccc-be158fd1f40e.als.out
Reading from standard input... Use '--help' for help.
============================[ Problem Statistics ]=============================
|                                                                             |
|  Number of variables:         69608                                         |
|  Number of clauses:          118081                                         |
|  Parse time:                   0.03 s                                       |
|                                                                             |
============================[ Search Statistics ]==============================
| Conflicts |          ORIGINAL         |          LEARNT          | Progress |
|           |    Vars  Clauses Literals |    Limit  Clauses Lit/Cl |          |
===============================================================================
===============================================================================
restarts              : 1
conflicts             : 12             (356 /sec)
decisions             : 2821           (0.00 % random) (83784 /sec)
propagations          : 22984          (682625 /sec)
conflict literals     : 32             (0.00 % deleted)
Memory used           : 15.33 MB
CPU time              : 0.03367 s

UNSATISFIABLE
